c FILE /home/rafael/Documents/HappySet/MIHS/inputs/happygen/output/graph_scale_free_k4_p0.4_v50_20241127_082430.txt
c SOURCE This is a scale-free graph formed for the happy graph colouring problem.
c DESCRIPTION It was generated using the problem generator of Rhyd Lewis
c
c GRAPH STATS
c Seed                             = 1909248588
c Number of Nodes                  = 50
c Number of colours k              = 4
c Number of pre-assignments        = 20
c Number of links per new node     = 5
c Density                          = 0.191837
c 
c The degrees of nodes 1 to 50, respectively, are as follows 
c [28, 25, 21, 20, 19, 18, 16, 14, 13, 12, 12, 12, 11, 10, 10, 9, 9, 9, 9, 9, 9, 8, 8, 7, 7, 7, 
c  7, 7, 7, 7, 7, 7, 7, 7, 6, 6, 5, 5, 5, 5, 5, 5, 5, 5, 5, 5, 5, 5, 5, 5] 
c  
p edge 50 235 4
e 1 2
e 1 3
e 1 4
e 1 5
e 1 6
e 1 7
e 1 8
e 1 9
e 1 10
e 1 11
e 1 13
e 1 14
e 1 15
e 1 16
e 1 18
e 1 20
e 1 22
e 1 23
e 1 24
e 1 25
e 1 30
e 1 32
e 1 34
e 1 36
e 1 42
e 1 44
e 1 47
e 1 48
e 2 3
e 2 4
e 2 5
e 2 6
e 2 7
e 2 8
e 2 9
e 2 11
e 2 13
e 2 14
e 2 15
e 2 16
e 2 17
e 2 19
e 2 20
e 2 21
e 2 22
e 2 24
e 2 26
e 2 29
e 2 37
e 2 40
e 2 43
e 2 48
e 3 4
e 3 5
e 3 6
e 3 7
e 3 8
e 3 9
e 3 12
e 3 14
e 3 15
e 3 16
e 3 19
e 3 20
e 3 22
e 3 24
e 3 28
e 3 38
e 3 40
e 3 45
e 3 46
e 4 5
e 4 6
e 4 8
e 4 10
e 4 14
e 4 16
e 4 18
e 4 20
e 4 25
e 4 26
e 4 27
e 4 30
e 4 33
e 4 35
e 4 37
e 4 41
e 4 44
e 5 7
e 5 11
e 5 12
e 5 13
e 5 16
e 5 19
e 5 27
e 5 28
e 5 29
e 5 31
e 5 33
e 5 39
e 5 42
e 5 47
e 5 50
e 6 7
e 6 9
e 6 10
e 6 11
e 6 14
e 6 15
e 6 18
e 6 23
e 6 25
e 6 27
e 6 31
e 6 33
e 6 38
e 6 40
e 7 9
e 7 14
e 7 17
e 7 22
e 7 23
e 7 25
e 7 26
e 7 34
e 7 35
e 7 38
e 7 43
e 8 9
e 8 10
e 8 17
e 8 22
e 8 26
e 8 29
e 8 34
e 8 35
e 8 38
e 8 46
e 9 11
e 9 15
e 9 17
e 9 29
e 9 35
e 9 44
e 9 46
e 10 13
e 10 17
e 10 19
e 10 24
e 10 36
e 10 37
e 10 38
e 10 49
e 11 18
e 11 21
e 11 28
e 11 37
e 11 40
e 11 45
e 11 50
e 12 15
e 12 20
e 12 22
e 12 24
e 12 27
e 12 40
e 12 41
e 12 43
e 12 44
e 12 47
e 13 18
e 13 26
e 13 31
e 13 36
e 13 41
e 13 47
e 13 48
e 14 30
e 14 34
e 14 45
e 14 46
e 15 17
e 15 24
e 15 25
e 15 41
e 16 18
e 16 21
e 16 32
e 16 37
e 17 21
e 17 42
e 17 47
e 18 28
e 18 30
e 18 50
e 19 22
e 19 23
e 19 28
e 19 29
e 19 42
e 20 23
e 20 31
e 20 32
e 20 45
e 21 25
e 21 33
e 21 39
e 21 41
e 21 48
e 22 27
e 23 32
e 23 42
e 23 46
e 24 50
e 25 49
e 26 43
e 26 50
e 27 32
e 27 44
e 28 30
e 28 39
e 29 35
e 29 43
e 30 31
e 30 39
e 31 36
e 31 39
e 32 33
e 32 45
e 33 34
e 33 49
e 34 36
e 34 49
e 35 49
e 36 48
n 5 4
n 9 3
n 13 4
n 17 3
n 20 4
n 23 4
n 24 4
n 25 2
n 26 4
n 27 4
n 28 4
n 31 4
n 32 4
n 34 1
n 37 1
n 39 4
n 40 1
n 43 4
n 45 4
n 50 4
